# Solution for model obj
# Objective value = 78
x#1 1
x#2 1
x#3 1
x#4 0
x#5 1
x#6 1
x#7 1
x#8 0
x#9 1
x#10 0
x#11 1
x#12 0
x#13 1
x#14 1
x#15 1
x#16 1
x#17 1
x#18 1
x#19 1
x#20 1
x#21 0
x#22 1
x#23 1
x#24 0
x#25 0
x#26 1
x#27 1
x#28 0
x#29 0
x#30 1
x#31 0
x#32 1
x#33 0
x#34 1
x#35 1
x#36 1
x#37 1
x#38 0
x#39 1
x#40 1
x#41 0
x#42 1
x#43 1
x#44 1
x#45 1
x#46 1
x#47 1
x#48 0
x#49 0
x#50 1
x#51 1
x#52 0
x#53 0
x#54 1
x#55 0
x#56 0
x#57 1
x#58 1
x#59 1
x#60 1
x#61 0
x#62 1
x#63 0
x#64 0
x#65 1
x#66 0
x#67 0
x#68 0
x#69 0
x#70 0
x#71 0
x#72 0
x#73 0
x#74 0
x#75 1
x#76 0
x#77 0
x#78 1
x#79 0
x#80 0
x#81 0
x#82 0
x#83 0
x#84 1
x#85 0
x#86 0
x#87 1
x#88 0
x#89 1
x#90 0
x#91 1
x#92 0
x#93 1
x#94 0
x#95 0
x#96 0
x#97 0
x#98 1
x#99 0
x#100 0
x#101 1
x#102 0
x#103 1
x#104 0
x#105 1
x#106 1
x#107 0
x#108 1
x#109 1
x#110 0
x#111 0
x#112 1
x#113 0
x#114 1
x#115 0
x#116 1
x#117 1
x#118 0
x#119 0
x#120 1
x#121 1
x#122 0
x#123 0
x#124 0
x#125 1
x#126 1
x#127 1
x#128 0
x#129 1
x#130 1
x#131 0
x#132 1
x#133 0
x#134 0
x#135 1
x#136 0
x#137 0
x#138 0
x#139 1
x#140 0
x#141 0
x#142 0
x#143 1
x#144 0
x#145 1
x#146 0
x#147 0
x#148 1
x#149 0
x#150 0
x#151 0
x#152 1
x#153 0
x#154 1
x#155 0
x#156 1
x#157 0
x#158 0
x#159 0
x#160 1
x#161 0
x#162 0
